c generated by sgen
p cnf 129 268
-2 -3 -4 0
-1 -3 -4 0
-1 -2 -4 0
-1 -2 -3 0
-6 -7 -8 0
-5 -7 -8 0
-5 -6 -8 0
-5 -6 -7 0
-10 -11 -12 0
-9 -11 -12 0
-9 -10 -12 0
-9 -10 -11 0
-14 -15 -16 0
-13 -15 -16 0
-13 -14 -16 0
-13 -14 -15 0
-18 -19 -20 0
-17 -19 -20 0
-17 -18 -20 0
-17 -18 -19 0
-22 -23 -24 0
-21 -23 -24 0
-21 -22 -24 0
-21 -22 -23 0
-26 -27 -28 0
-25 -27 -28 0
-25 -26 -28 0
-25 -26 -27 0
-30 -31 -32 0
-29 -31 -32 0
-29 -30 -32 0
-29 -30 -31 0
-34 -35 -36 0
-33 -35 -36 0
-33 -34 -36 0
-33 -34 -35 0
-38 -39 -40 0
-37 -39 -40 0
-37 -38 -40 0
-37 -38 -39 0
-42 -43 -44 0
-41 -43 -44 0
-41 -42 -44 0
-41 -42 -43 0
-46 -47 -48 0
-45 -47 -48 0
-45 -46 -48 0
-45 -46 -47 0
-50 -51 -52 0
-49 -51 -52 0
-49 -50 -52 0
-49 -50 -51 0
-54 -55 -56 0
-53 -55 -56 0
-53 -54 -56 0
-53 -54 -55 0
-58 -59 -60 0
-57 -59 -60 0
-57 -58 -60 0
-57 -58 -59 0
-62 -63 -64 0
-61 -63 -64 0
-61 -62 -64 0
-61 -62 -63 0
-66 -67 -68 0
-65 -67 -68 0
-65 -66 -68 0
-65 -66 -67 0
-70 -71 -72 0
-69 -71 -72 0
-69 -70 -72 0
-69 -70 -71 0
-74 -75 -76 0
-73 -75 -76 0
-73 -74 -76 0
-73 -74 -75 0
-78 -79 -80 0
-77 -79 -80 0
-77 -78 -80 0
-77 -78 -79 0
-82 -83 -84 0
-81 -83 -84 0
-81 -82 -84 0
-81 -82 -83 0
-86 -87 -88 0
-85 -87 -88 0
-85 -86 -88 0
-85 -86 -87 0
-90 -91 -92 0
-89 -91 -92 0
-89 -90 -92 0
-89 -90 -91 0
-94 -95 -96 0
-93 -95 -96 0
-93 -94 -96 0
-93 -94 -95 0
-98 -99 -100 0
-97 -99 -100 0
-97 -98 -100 0
-97 -98 -99 0
-102 -103 -104 0
-101 -103 -104 0
-101 -102 -104 0
-101 -102 -103 0
-106 -107 -108 0
-105 -107 -108 0
-105 -106 -108 0
-105 -106 -107 0
-110 -111 -112 0
-109 -111 -112 0
-109 -110 -112 0
-109 -110 -111 0
-114 -115 -116 0
-113 -115 -116 0
-113 -114 -116 0
-113 -114 -115 0
-118 -119 -120 0
-117 -119 -120 0
-117 -118 -120 0
-117 -118 -119 0
-122 -123 -124 0
-121 -123 -124 0
-121 -122 -124 0
-121 -122 -123 0
-125 -126 -127 0
-125 -126 -128 0
-125 -126 -129 0
-125 -127 -128 0
-125 -127 -129 0
-125 -128 -129 0
-126 -127 -128 0
-126 -127 -129 0
-126 -128 -129 0
-127 -128 -129 0
94 25 129 0
10 25 129 0
10 94 129 0
10 94 25 0
62 82 31 0
36 82 31 0
36 62 31 0
36 62 82 0
29 46 104 0
110 46 104 0
110 29 104 0
110 29 46 0
108 38 49 0
128 38 49 0
128 108 49 0
128 108 38 0
85 91 27 0
74 91 27 0
74 85 27 0
74 85 91 0
106 77 68 0
1 77 68 0
1 106 68 0
1 106 77 0
111 13 21 0
103 13 21 0
103 111 21 0
103 111 13 0
55 60 127 0
116 60 127 0
116 55 127 0
116 55 60 0
70 35 58 0
112 35 58 0
112 70 58 0
112 70 35 0
41 53 28 0
4 53 28 0
4 41 28 0
4 41 53 0
113 120 5 0
40 120 5 0
40 113 5 0
40 113 120 0
22 64 57 0
118 64 57 0
118 22 57 0
118 22 64 0
97 30 88 0
15 30 88 0
15 97 88 0
15 97 30 0
95 24 54 0
89 24 54 0
89 95 54 0
89 95 24 0
99 20 63 0
93 20 63 0
93 99 63 0
93 99 20 0
83 115 124 0
17 115 124 0
17 83 124 0
17 83 115 0
117 105 90 0
42 105 90 0
42 117 90 0
42 117 105 0
71 48 44 0
126 48 44 0
126 71 44 0
126 71 48 0
65 9 23 0
19 9 23 0
19 65 23 0
19 65 9 0
100 51 84 0
3 51 84 0
3 100 84 0
3 100 51 0
39 66 56 0
33 66 56 0
33 39 56 0
33 39 66 0
26 50 123 0
119 50 123 0
119 26 123 0
119 26 50 0
101 37 78 0
73 37 78 0
73 101 78 0
73 101 37 0
32 121 69 0
67 121 69 0
67 32 69 0
67 32 121 0
107 34 47 0
98 34 47 0
98 107 47 0
98 107 34 0
81 102 59 0
11 102 59 0
11 81 59 0
11 81 102 0
80 86 45 0
12 86 45 0
12 80 45 0
12 80 86 0
92 18 125 0
109 18 125 0
109 92 125 0
109 92 18 0
14 61 114 0
76 61 114 0
76 14 114 0
76 14 61 0
122 7 2 0
75 7 2 0
75 122 2 0
75 122 7 0
96 72 6 0
87 72 6 0
87 96 6 0
87 96 72 0
16 79 43 0
16 79 8 0
16 79 52 0
16 43 8 0
16 43 52 0
16 8 52 0
79 43 8 0
79 43 52 0
79 8 52 0
43 8 52 0
